NAME : tsp25_18.142.tour
COMMENT : Length = 142
COMMENT : Found by LKH [Keld Helsgaun]
TYPE : TOUR
DIMENSION : 25
TOUR_SECTION
1
2
16
18
21
23
20
22
9
13
7
6
12
5
4
19
10
25
15
24
17
14
3
8
11
-1
EOF
